53
1 54 
3 78 60 13 
4 2 109 28 11 
4 100 64 59 114 
3 93 52 36 
2 113 27 
2 40 116 
3 106 66 61 
2 80 55 
3 30 19 46 
3 12 120 50 
2 5 99 
2 79 111 
2 18 91 
2 104 119 
2 62 53 
2 108 89 
2 6 42 
2 69 73 
2 72 76 
2 68 51 
2 70 85 
2 23 63 
2 45 3 
2 77 107 
3 7 102 118 
2 84 57 
2 90 65 
2 31 41 
2 101 25 
2 29 97 
3 95 22 43 
2 24 105 
3 32 39 9 
2 86 87 
3 34 21 88 
3 103 8 49 
2 71 20 
2 17 98 
3 112 37 1 
2 115 35 
2 44 56 
2 82 117 
2 74 10 
2 83 14 
2 15 75 
2 110 33 
2 94 48 
2 16 47 
2 92 58 
2 96 38 
2 81 26 
2 67 4 
